
Gurobi 6.5.2 (linux64) logging started Sat Jan 13 12:54:03 2018

Changed value of parameter TimeLimit to 1200.0
   Prev: 1e+100  Min: 0.0  Max: 1e+100  Default: 1e+100
Optimize a model with 25 rows, 67 columns and 79 nonzeros
Model has 36 quadratic objective terms
Model has 90 quadratic constraints
Coefficient statistics:
  Matrix range    [1e+00, 1e+00]
  Objective range [0e+00, 0e+00]
  Bounds range    [1e+00, 3e+01]
  RHS range       [1e+00, 2e+01]
Modified 48 Q diagonals
Modified 10 Q diagonals
Modified 10 Q diagonals
Modified 10 Q diagonals
Modified 10 Q diagonals
Modified 10 Q diagonals
Modified 10 Q diagonals
Modified 10 Q diagonals
Modified 10 Q diagonals
Modified 10 Q diagonals
Presolve removed 7 rows and 17 columns
Presolve time: 0.00s
Presolved: 423 rows, 212 columns, 1200 nonzeros
Presolved model has 84 quadratic objective terms
Variable types: 0 continuous, 212 integer (210 binary)

Root relaxation: objective -1.229085e+02, 61 iterations, 0.00 seconds

    Nodes    |    Current Node    |     Objective Bounds      |     Work
 Expl Unexpl |  Obj  Depth IntInf | Incumbent    BestBd   Gap | It/Node Time

     0     0 -122.90852    0   42          - -122.90852      -     -    0s
     0     2 -122.90852    0   42          - -122.90852      -     -    0s
*   13     0               9     -18.0000000  -19.96759  10.9%  18.2    0s

Explored 104 nodes (1000 simplex iterations) in 0.07 seconds
Thread count was 4 (of 4 available processors)

Optimal solution found (tolerance 1.00e-04)
Best objective -1.800000000000e+01, best bound -1.800000000000e+01, gap 0.0%

Gurobi 6.5.2 (linux64) logging started Sat Jan 13 13:23:15 2018

Changed value of parameter TimeLimit to 1200.0
   Prev: 1e+100  Min: 0.0  Max: 1e+100  Default: 1e+100
Optimize a model with 25 rows, 67 columns and 79 nonzeros
Model has 36 quadratic objective terms
Model has 90 quadratic constraints
Coefficient statistics:
  Matrix range    [1e+00, 1e+00]
  Objective range [0e+00, 0e+00]
  Bounds range    [1e+00, 3e+01]
  RHS range       [1e+00, 2e+01]
Modified 48 Q diagonals
Modified 10 Q diagonals
Modified 10 Q diagonals
Modified 10 Q diagonals
Modified 10 Q diagonals
Modified 10 Q diagonals
Modified 10 Q diagonals
Modified 10 Q diagonals
Modified 10 Q diagonals
Modified 10 Q diagonals
Presolve removed 7 rows and 17 columns
Presolve time: 0.00s
Presolved: 423 rows, 212 columns, 1200 nonzeros
Presolved model has 84 quadratic objective terms
Variable types: 0 continuous, 212 integer (210 binary)

Root relaxation: objective -1.229085e+02, 61 iterations, 0.00 seconds

    Nodes    |    Current Node    |     Objective Bounds      |     Work
 Expl Unexpl |  Obj  Depth IntInf | Incumbent    BestBd   Gap | It/Node Time

     0     0 -122.90852    0   42          - -122.90852      -     -    0s
     0     2 -122.90852    0   42          - -122.90852      -     -    0s
*   13     0               9     -18.0000000  -19.96759  10.9%  18.2    0s

Explored 104 nodes (1000 simplex iterations) in 0.06 seconds
Thread count was 4 (of 4 available processors)

Optimal solution found (tolerance 1.00e-04)
Best objective -1.800000000000e+01, best bound -1.800000000000e+01, gap 0.0%

Gurobi 6.5.2 (linux64) logging started Sat Jan 13 13:25:26 2018

Changed value of parameter TimeLimit to 1200.0
   Prev: 1e+100  Min: 0.0  Max: 1e+100  Default: 1e+100
Optimize a model with 25 rows, 67 columns and 79 nonzeros
Model has 36 quadratic objective terms
Model has 90 quadratic constraints
Coefficient statistics:
  Matrix range    [1e+00, 1e+00]
  Objective range [0e+00, 0e+00]
  Bounds range    [1e+00, 3e+01]
  RHS range       [1e+00, 2e+01]
Modified 48 Q diagonals
Modified 10 Q diagonals
Modified 10 Q diagonals
Modified 10 Q diagonals
Modified 10 Q diagonals
Modified 10 Q diagonals
Modified 10 Q diagonals
Modified 10 Q diagonals
Modified 10 Q diagonals
Modified 10 Q diagonals
Presolve removed 7 rows and 17 columns
Presolve time: 0.00s
Presolved: 423 rows, 212 columns, 1200 nonzeros
Presolved model has 84 quadratic objective terms
Variable types: 0 continuous, 212 integer (210 binary)

Root relaxation: objective -1.190013e+02, 61 iterations, 0.00 seconds

    Nodes    |    Current Node    |     Objective Bounds      |     Work
 Expl Unexpl |  Obj  Depth IntInf | Incumbent    BestBd   Gap | It/Node Time

     0     0 -119.00130    0   42          - -119.00130      -     -    0s
     0     2 -119.00130    0   42          - -119.00130      -     -    0s
*   13     0               9     -18.0000000  -19.96759  10.9%  17.8    0s

Explored 104 nodes (997 simplex iterations) in 0.06 seconds
Thread count was 4 (of 4 available processors)

Optimal solution found (tolerance 1.00e-04)
Best objective -1.800000000000e+01, best bound -1.800000000000e+01, gap 0.0%

Gurobi 6.5.2 (linux64) logging started Sat Jan 13 13:25:29 2018

Changed value of parameter TimeLimit to 1200.0
   Prev: 1e+100  Min: 0.0  Max: 1e+100  Default: 1e+100
Optimize a model with 25 rows, 67 columns and 79 nonzeros
Model has 36 quadratic objective terms
Model has 90 quadratic constraints
Coefficient statistics:
  Matrix range    [1e+00, 1e+00]
  Objective range [0e+00, 0e+00]
  Bounds range    [1e+00, 3e+01]
  RHS range       [1e+00, 2e+01]
Modified 48 Q diagonals
Modified 10 Q diagonals
Modified 10 Q diagonals
Modified 10 Q diagonals
Modified 10 Q diagonals
Modified 10 Q diagonals
Modified 10 Q diagonals
Modified 10 Q diagonals
Modified 10 Q diagonals
Modified 10 Q diagonals
Presolve removed 7 rows and 17 columns
Presolve time: 0.00s
Presolved: 423 rows, 212 columns, 1200 nonzeros
Presolved model has 84 quadratic objective terms
Variable types: 0 continuous, 212 integer (210 binary)

Root relaxation: objective -1.190013e+02, 61 iterations, 0.00 seconds

    Nodes    |    Current Node    |     Objective Bounds      |     Work
 Expl Unexpl |  Obj  Depth IntInf | Incumbent    BestBd   Gap | It/Node Time

     0     0 -119.00130    0   42          - -119.00130      -     -    0s
     0     2 -119.00130    0   42          - -119.00130      -     -    0s
*   13     0               9     -18.0000000  -19.96759  10.9%  17.8    0s

Explored 104 nodes (997 simplex iterations) in 0.06 seconds
Thread count was 4 (of 4 available processors)

Optimal solution found (tolerance 1.00e-04)
Best objective -1.800000000000e+01, best bound -1.800000000000e+01, gap 0.0%

Gurobi 6.5.2 (linux64) logging started Sat Jan 13 13:26:00 2018

Changed value of parameter TimeLimit to 1200.0
   Prev: 1e+100  Min: 0.0  Max: 1e+100  Default: 1e+100
Optimize a model with 25 rows, 67 columns and 79 nonzeros
Model has 36 quadratic objective terms
Model has 90 quadratic constraints
Coefficient statistics:
  Matrix range    [1e+00, 1e+00]
  Objective range [0e+00, 0e+00]
  Bounds range    [1e+00, 3e+01]
  RHS range       [1e+00, 2e+01]
Modified 48 Q diagonals
Modified 10 Q diagonals
Modified 10 Q diagonals
Modified 10 Q diagonals
Modified 10 Q diagonals
Modified 10 Q diagonals
Modified 10 Q diagonals
Modified 10 Q diagonals
Modified 10 Q diagonals
Modified 10 Q diagonals
Presolve removed 7 rows and 17 columns
Presolve time: 0.00s
Presolved: 423 rows, 212 columns, 1200 nonzeros
Presolved model has 84 quadratic objective terms
Variable types: 0 continuous, 212 integer (210 binary)

Root relaxation: objective -1.190013e+02, 61 iterations, 0.00 seconds

    Nodes    |    Current Node    |     Objective Bounds      |     Work
 Expl Unexpl |  Obj  Depth IntInf | Incumbent    BestBd   Gap | It/Node Time

     0     0 -119.00130    0   42          - -119.00130      -     -    0s
     0     2 -119.00130    0   42          - -119.00130      -     -    0s
*   13     0               9     -18.0000000  -19.96759  10.9%  17.8    0s

Explored 104 nodes (997 simplex iterations) in 0.06 seconds
Thread count was 4 (of 4 available processors)

Optimal solution found (tolerance 1.00e-04)
Best objective -1.800000000000e+01, best bound -1.800000000000e+01, gap 0.0%

Gurobi 6.5.2 (linux64) logging started Sat Jan 13 13:30:28 2018

Changed value of parameter TimeLimit to 1200.0
   Prev: 1e+100  Min: 0.0  Max: 1e+100  Default: 1e+100
Optimize a model with 25 rows, 67 columns and 79 nonzeros
Model has 36 quadratic objective terms
Model has 90 quadratic constraints
Coefficient statistics:
  Matrix range    [1e+00, 1e+00]
  Objective range [0e+00, 0e+00]
  Bounds range    [1e+00, 3e+01]
  RHS range       [1e+00, 2e+01]
Modified 48 Q diagonals
Modified 10 Q diagonals
Modified 10 Q diagonals
Modified 10 Q diagonals
Modified 10 Q diagonals
Modified 10 Q diagonals
Modified 10 Q diagonals
Modified 10 Q diagonals
Modified 10 Q diagonals
Modified 10 Q diagonals
Presolve removed 7 rows and 17 columns
Presolve time: 0.00s
Presolved: 423 rows, 212 columns, 1200 nonzeros
Presolved model has 84 quadratic objective terms
Variable types: 0 continuous, 212 integer (210 binary)

Root relaxation: objective -1.759538e+03, 68 iterations, 0.00 seconds

    Nodes    |    Current Node    |     Objective Bounds      |     Work
 Expl Unexpl |  Obj  Depth IntInf | Incumbent    BestBd   Gap | It/Node Time

     0     0 -1759.5379    0   48          - -1759.5379      -     -    0s
     0     2 -1759.5379    0   48          - -1759.5379      -     -    0s
*   88     3               7    3943.4970000   92.90960  97.6%  10.5    0s

Cutting planes:

Explored 225 nodes (1839 simplex iterations) in 0.15 seconds
Thread count was 4 (of 4 available processors)

Optimal solution found (tolerance 1.00e-04)
Best objective 3.943497000000e+03, best bound 3.943497000000e+03, gap 0.0%
